\ LP format - for model browsing. Use MPS format to capture full model detail.
Maximize
  7 x_1 + x_2 + x_3 + 5 x_4 + x_5 + 3 x_6 + 5 x_7 + 4 x_8 + x_9 + 6 x_10
   + 9 x_11 + 2 x_12 + 8 x_13 + 5 x_14 + x_15
Subject To
 C_1: 6 x_3 + 6 x_5 + 9 x_6 + 3 x_9 + 6 x_10 + 7 x_11 + 3 x_13 + 9 x_14
   + 2 x_15 <= 25
 C_2: 4 x_1 + 8 x_4 + 6 x_6 + 9 x_9 + 7 x_10 + 8 x_11 + 9 x_12 + 3 x_13
   + 7 x_14 <= 30
 C_3: 4 x_2 + 5 x_4 + 9 x_5 + 3 x_8 + 7 x_11 + 8 x_14 + 9 x_15 <= 22
 C_4: 5 x_3 + 4 x_6 + 2 x_7 + 4 x_14 <= 7
 C_5: 8 x_1 + 2 x_2 + 3 x_4 + 7 x_5 + 5 x_7 + 8 x_9 + 4 x_12 + 7 x_14
   + 8 x_15 <= 26
 C_6: 4 x_2 + 7 x_4 + 3 x_5 + 6 x_7 + 9 x_8 + 5 x_9 + 8 x_10 + 5 x_12
   <= 23
 C_7: 2 x_1 + 2 x_2 + 8 x_5 + 5 x_6 + 4 x_7 + 9 x_8 + 6 x_10 <= 18
 C_8: 7 x_4 + 10 x_9 + 3 x_12 <= 10
 C_9: 4 x_3 + 6 x_5 + 4 x_6 + 4 x_10 + 8 x_11 + 10 x_13 + x_15 <= 18
 C_10: 6 x_4 + x_5 + 10 x_9 + 6 x_11 + 9 x_12 + 7 x_15 <= 19
Bounds
Binaries
 x_1 x_2 x_3 x_4 x_5 x_6 x_7 x_8 x_9 x_10 x_11 x_12 x_13 x_14 x_15
End
